c WARNING: for repeatability, setting FPU to use double precision
d VARIABLES            187002       
d CONSTRAINTS          854911       
c ============================[ Problem Statistics ]=============================
c |                                                                             |
c |  Number of variables:        187002                                         |
c |  Number of clauses:          854911                                         |
c |  Parse time:                   0.14 s                                       |
c |                                                                             |
c ============================[ Search Statistics ]==============================
c | Conflicts |          ORIGINAL         |          LEARNT          | Progress |
c |           |    Vars  Clauses Literals |    Limit  Clauses Lit/Cl |          |
c ===============================================================================
c |       100 |  165023   792615  1917224 |   290625      100     14 | 11.753 % |
c |       250 |  165023   792615  1917224 |   319688      250     23 | 11.753 % |
c |       475 |  165023   792615  1917224 |   351656      475     49 | 11.753 % |
c |       812 |  165023   792615  1917224 |   386822      812     55 | 11.753 % |
c |      1318 |  165023   792615  1917224 |   425504     1318     53 | 11.753 % |
c |      2077 |  165023   792615  1917224 |   468055     2077     53 | 11.753 % |
c |      3216 |  165023   792615  1917224 |   514860     3216     62 | 11.753 % |
c |      4924 |  165023   792615  1917224 |   566346     4924     75 | 11.753 % |
c |      7486 |  165023   792615  1917224 |   622981     7486     81 | 11.753 % |
c |     11330 |  165023   792615  1917224 |   685279    11330     87 | 11.753 % |
c |     17096 |  165023   792615  1917224 |   753807    17096    117 | 11.753 % |
c |     25745 |  165023   792615  1917224 |   829188    25745    135 | 11.753 % |
c |     38719 |  165023   792615  1917224 |   912107    38719    125 | 11.753 % |
c |     58180 |  165023   792615  1917224 |  1003318    58180    119 | 11.753 % |
c |     87372 |  165023   792615  1917224 |  1103649    87372    130 | 11.753 % |
c |    131161 |  165023   792615  1917224 |  1214014   131161    130 | 11.753 % |
c |    196845 |  165023   792615  1917224 |  1335416   196845    133 | 11.753 % |
c |    295371 |  165023   792615  1917224 |  1468957   295371    139 | 11.753 % |
c |    443160 |  165023   792615  1917224 |  1615853   443160    141 | 11.753 % |
c |    664843 |  165023   792615  1917224 |  1777439   664843    147 | 11.753 % |
c |    997368 |  165023   792615  1917224 |  1955183   997368    155 | 11.753 % |
c |   1496156 |  165023   792615  1917224 |  2150701  1496156    169 | 11.753 % |
c ===============================================================================
c restarts              : 3070
c conflicts             : 1621330        (904 /sec)
c decisions             : 4969594        (0.00 % random) (2770 /sec)
c propagations          : 4429381580     (2468761 /sec)
c conflict literals     : 281124679      (33.79 % deleted)
d RESTARTS             3070
d FAILURES             1621330      
d NODES                4969594      
d BACKTRACKS           4969594      
d PROPAGATIONS         4429381580   
d NOGOODSIZE           173.39 
d MEMORY               1599.00 
d TIME                 1794.17 

s UNKNOWN
